[[0, 27, 69, 1, 50, 76, 77, 3, 79, 33, 81, 9, 51, 70, 30, 20, 66, 65, 71, 35, 34, 78, 29, 24, 68, 80, 12, 28, 0], [0, 52, 31, 88, 7, 82, 48, 19, 11, 62, 10, 32, 90, 63, 64, 49, 36, 47, 46, 8, 45, 17, 84, 61, 5, 60, 83, 18, 89, 6, 0], [0, 94, 95, 97, 92, 59, 96, 99, 93, 85, 98, 37, 100, 91, 16, 86, 38, 44, 14, 42, 43, 15, 57, 2, 87, 13, 0], [0, 53, 58, 40, 21, 73, 72, 74, 22, 41, 75, 56, 23, 67, 39, 25, 55, 4, 54, 26, 0]]